! generated by QEtk 2025-12-04 05:29:28 UTC+8
&CONTROL
  title='Elemental:bulk:(Fe)4:cP(1):Fm-3m (225):non-primitive(1):45.92', 
  calculation='scf', pseudo_dir='/mnt/c/QuantumEspresso/qe-7.5/pseudo', outdir='./tmp', verbosity='high',
  tprnfor=.true., tstress=.true., forc_conv_thr=1.0d-4, nstep=100,
/
&SYSTEM
  ibrav= 1, nat= 4, ntyp= 1, celldm(1)=6.767109, 
  occupations = 'smearing', smearing = 'gauss', degauss = 1.0d-2,
  ecutwfc = 50, ecutrho = 500,
/
&ELECTRONS
  conv_thr = 1.0d-8
  mixing_beta = 0.7d0
/
&IONS
/
&CELL
  press_conv_thr=0.1
/
ATOMIC_SPECIES
  Fe 55.845 Fe.UPF
ATOMIC_POSITIONS (crystal)
  Fe  0.0000000000  0.0000000000  0.0000000000
  Fe  0.5000000000  0.5000000000  0.0000000000
  Fe  0.5000000000  0.0000000000  0.5000000000
  Fe  0.0000000000  0.5000000000  0.5000000000
K_POINTS {automatic}
  7 7 7 0 0 0
